% seed = 0

mint = 32;
% maxt = 145;

nActs = 62;
dur = [0,4,3,3,1,4,2,1,2,4,3,2,2,2,2,1,6,1,5,5,2,3,3,1,2,2,2,2,3,2,2,2,3,1,1,2,2,2,2,2,2,2,3,3,4,2,3,3,2,6,1,3,3,3,3,1,1,1,3,1,1,0];

nSkills = 12;
sreq = [| 0,0,0,0,0,0,0,0,0,0,0,0,
	| 0,1,1,1,0,0,1,1,0,0,0,0,
	| 0,0,1,0,1,0,0,1,0,0,0,0,
	| 0,0,2,0,0,0,0,1,1,0,0,0,
	| 0,0,0,0,0,1,0,0,0,0,1,0,
	| 0,0,1,0,1,1,0,0,0,0,0,0,
	| 0,0,0,0,1,1,0,2,0,1,0,0,
	| 0,0,1,0,0,0,0,0,1,1,0,0,
	| 0,0,2,2,0,0,0,0,1,0,0,0,
	| 0,0,0,0,1,0,0,0,0,0,0,0,
	| 0,0,0,0,0,0,0,1,0,0,0,0,
	| 0,0,0,1,0,2,0,1,1,0,0,0,
	| 0,0,0,0,0,1,0,1,0,1,0,0,
	| 0,0,0,0,1,1,0,0,1,1,0,0,
	| 0,0,0,1,1,0,0,1,0,1,0,0,
	| 0,0,0,0,0,0,0,1,0,0,0,0,
	| 0,0,0,0,1,3,0,0,0,1,0,0,
	| 0,0,0,0,0,2,0,0,1,0,1,0,
	| 1,0,0,1,1,1,0,2,0,0,0,0,
	| 0,0,0,0,1,0,1,1,0,0,0,0,
	| 0,0,3,1,1,0,0,0,1,0,1,0,
	| 0,1,0,0,1,0,0,1,2,0,0,0,
	| 0,0,0,0,0,0,0,1,2,0,0,0,
	| 0,0,0,0,1,0,0,0,0,0,0,0,
	| 0,0,0,1,2,0,0,1,0,0,0,0,
	| 0,1,0,0,0,1,1,1,2,0,0,0,
	| 0,1,1,1,0,1,0,0,1,0,0,0,
	| 1,0,1,1,1,0,1,0,0,1,0,0,
	| 0,0,0,0,0,2,1,0,0,1,0,0,
	| 0,0,1,0,0,0,0,0,3,0,0,0,
	| 1,0,1,0,0,2,0,0,2,0,1,0,
	| 0,0,0,0,1,1,1,0,1,1,1,0,
	| 0,0,0,0,1,0,0,1,1,0,0,0,
	| 0,1,0,1,0,0,0,0,0,0,0,0,
	| 0,0,1,0,0,1,0,0,3,1,0,0,
	| 0,0,0,0,1,0,0,0,0,0,0,0,
	| 0,0,0,1,1,1,0,0,0,0,0,0,
	| 0,1,0,0,0,1,0,1,2,0,0,0,
	| 0,0,0,1,0,0,0,1,0,0,0,0,
	| 0,0,0,0,0,1,0,0,1,0,1,0,
	| 0,1,0,0,1,2,0,1,1,0,0,0,
	| 0,0,1,0,0,1,1,0,2,0,1,0,
	| 0,0,0,0,0,0,1,0,1,0,0,0,
	| 0,1,0,0,0,1,0,1,3,1,0,0,
	| 0,0,1,0,0,1,0,0,1,0,1,1,
	| 0,0,0,0,0,1,1,0,3,0,0,0,
	| 0,1,0,1,1,0,0,3,0,0,0,0,
	| 0,0,0,0,0,0,0,1,0,0,0,0,
	| 0,0,0,0,0,1,0,0,0,0,0,0,
	| 0,0,1,1,0,0,0,0,0,0,1,0,
	| 0,0,0,0,0,2,0,0,1,0,1,0,
	| 0,0,0,0,1,0,0,0,1,0,0,0,
	| 0,0,1,0,1,0,0,0,2,0,1,0,
	| 0,0,0,0,0,0,0,0,0,1,1,0,
	| 0,0,0,0,1,0,0,0,0,0,1,0,
	| 0,1,0,0,1,3,1,0,1,0,0,0,
	| 0,0,0,0,2,1,0,0,2,0,0,0,
	| 0,0,0,0,1,0,1,0,1,0,1,0,
	| 0,0,0,0,1,0,0,0,1,0,0,0,
	| 0,0,0,0,2,2,0,0,2,1,0,0,
	| 0,0,0,0,0,0,0,0,1,0,0,0,
	| 0,0,0,0,0,0,0,0,0,0,0,0, |];

% SumOfsreq = 233;

nResources = 23;
mastery = [| false,false,false,false,false,false,false,true,true,false,false,false,
	| false,false,false,false,true,true,false,false,false,false,false,false,
	| false,true,true,false,false,false,false,false,false,false,false,false,
	| false,false,false,false,false,true,false,false,false,false,false,false,
	| false,false,false,false,false,false,true,true,true,true,true,true,
	| false,false,false,true,true,true,false,false,false,false,false,false,
	| false,false,false,false,false,false,true,true,true,false,false,false,
	| false,false,false,false,true,true,false,false,false,false,false,false,
	| false,false,false,false,false,false,false,false,true,false,false,false,
	| false,false,false,false,false,false,false,true,true,false,false,false,
	| false,false,false,true,true,true,false,false,false,false,true,true,
	| false,false,true,false,false,false,false,false,false,false,false,false,
	| false,false,false,false,false,false,false,false,false,true,true,true,
	| false,false,false,true,true,true,false,false,false,false,false,false,
	| true,true,true,false,false,false,false,false,false,false,false,false,
	| false,false,false,true,true,true,false,false,false,false,false,false,
	| false,false,false,true,true,true,false,false,false,false,false,true,
	| false,false,false,false,false,false,false,false,false,true,true,true,
	| false,false,false,false,false,false,false,false,true,false,false,false,
	| false,false,false,false,false,false,true,true,true,false,false,true,
	| false,false,false,true,true,true,true,true,true,false,false,false,
	| false,false,false,false,false,false,false,false,true,false,false,false,
	| false,false,false,true,true,true,false,false,false,false,false,false, |];

nPrecs = 131;
pred = [1,1,1,2,2,2,3,3,3,4,4,4,5,5,5,6,6,6,7,7,7,8,8,8,9,9,9,10,10,10,11,11,11,12,12,12,13,13,13,14,14,15,15,15,16,16,16,17,17,17,18,18,18,19,20,20,21,21,21,22,22,22,23,23,23,24,24,24,25,25,26,27,27,27,28,29,29,29,30,30,30,31,31,31,32,32,32,33,33,34,35,35,36,36,36,37,38,38,38,39,40,40,40,41,41,42,42,43,44,45,46,47,48,48,49,50,50,51,51,51,52,53,54,55,56,57,57,58,59,60,61];
succ = [2,3,4,5,47,32,19,6,7,13,38,8,26,27,52,59,20,14,9,12,31,18,11,16,10,28,40,41,15,24,29,28,21,41,29,22,17,46,40,26,27,60,46,54,34,30,23,26,36,24,30,23,54,20,28,55,33,35,39,57,45,39,36,46,32,25,50,43,34,29,30,36,37,39,56,42,51,32,35,45,43,33,34,35,53,37,56,41,40,51,42,37,43,45,48,58,49,50,47,48,42,44,47,51,44,56,48,61,50,55,49,57,49,58,61,52,53,52,53,55,54,57,59,58,60,59,61,60,62,62,62];

nUnrels = 979;
unpred = [2,2,2,2,2,2,2,2,2,2,2,2,2,2,2,2,2,2,2,2,2,2,2,2,2,2,2,2,2,2,2,2,2,2,3,3,3,3,3,3,3,3,3,3,3,4,4,4,4,4,4,4,4,4,4,4,4,4,5,5,5,5,5,5,5,5,5,5,5,5,5,5,5,5,5,5,5,5,5,5,5,5,5,5,5,5,5,5,5,5,5,5,5,5,6,6,6,6,6,6,6,6,6,6,6,6,6,6,6,6,6,6,6,6,6,6,6,6,6,6,6,6,6,6,6,6,6,6,7,7,7,7,7,7,7,7,7,7,7,7,7,7,7,7,8,8,8,8,8,8,8,8,8,8,8,8,8,8,8,8,9,9,9,9,9,9,9,9,9,9,9,9,9,9,9,9,9,9,9,9,9,9,10,10,10,10,10,10,10,10,10,10,10,10,10,10,10,10,10,10,10,10,10,10,10,10,10,11,11,11,11,11,11,11,11,11,11,11,11,11,11,11,11,11,11,11,11,11,11,11,12,12,12,12,12,12,12,12,12,12,12,12,12,12,12,12,12,12,12,12,12,12,12,12,12,12,13,13,13,13,13,13,13,13,13,13,13,13,13,13,13,13,14,14,14,14,14,14,14,14,14,14,14,14,14,14,14,14,14,14,14,14,14,14,14,14,14,14,14,14,14,14,15,15,15,15,15,15,15,15,15,15,15,15,15,15,15,15,15,15,15,15,15,15,15,15,15,15,15,15,15,15,15,15,15,15,15,15,15,15,15,15,16,16,16,16,16,16,16,16,16,16,16,16,16,16,16,16,16,16,16,16,16,17,17,17,17,17,17,17,17,17,17,17,17,17,17,17,17,17,18,18,18,18,18,18,18,18,18,18,18,18,18,18,18,18,18,18,18,18,18,18,19,19,19,19,19,19,19,19,19,19,19,19,19,19,19,19,19,19,19,19,19,19,19,19,19,19,19,19,19,19,19,19,19,19,19,19,20,20,20,20,20,20,20,20,20,20,20,20,20,20,20,20,20,20,20,20,20,20,20,20,20,20,20,20,20,20,20,20,20,20,20,20,21,21,21,21,21,21,21,21,21,21,21,21,21,21,21,21,21,22,22,22,22,22,22,22,22,22,22,22,22,22,22,22,22,22,22,22,22,22,22,22,22,22,22,22,22,22,23,23,23,23,23,23,23,23,23,23,23,23,23,23,23,23,23,23,23,23,23,23,24,24,24,24,24,24,24,24,24,24,24,24,24,24,24,24,25,25,25,25,25,25,25,25,25,25,25,25,25,25,25,25,25,25,26,26,26,26,26,26,26,26,26,26,26,26,26,26,26,26,26,26,26,26,26,26,27,27,27,27,27,27,27,27,27,27,27,27,27,27,27,27,27,27,27,27,27,27,27,28,28,28,28,28,28,28,28,28,28,28,28,28,28,28,28,28,28,28,28,28,28,28,28,28,28,28,28,28,28,28,29,29,29,29,29,29,29,29,29,29,29,29,29,29,29,29,30,30,30,30,30,30,30,30,30,30,30,30,30,30,30,30,30,30,30,31,31,31,31,31,31,31,32,32,32,32,32,32,32,32,32,32,32,32,32,32,32,32,32,32,32,32,32,33,33,33,33,33,33,33,33,33,34,34,34,34,34,34,34,34,34,34,34,34,34,34,34,34,34,35,35,35,35,35,35,35,35,35,35,35,35,35,35,35,35,35,35,36,36,36,36,36,36,36,36,36,36,36,36,36,36,36,36,36,37,37,37,37,37,37,37,37,37,37,37,37,37,37,37,37,37,37,37,37,37,37,38,38,38,38,38,38,38,38,38,38,38,38,38,38,39,39,39,39,39,39,39,39,39,39,39,39,39,39,39,39,39,40,40,40,40,40,40,41,41,41,41,41,41,41,41,42,42,42,42,42,42,42,42,42,42,42,42,42,43,43,43,43,43,43,43,43,43,43,43,43,43,43,43,43,43,44,44,44,44,44,44,44,44,44,44,45,45,45,45,45,45,45,45,45,45,45,45,45,46,46,46,46,46,46,46,46,46,46,46,46,46,47,47,47,47,47,47,47,47,47,47,47,48,48,48,48,48,48,48,48,48,49,49,49,49,49,49,49,49,49,49,49,50,50,50,50,50,51,52,52,52,52,52,52,52,53,53,53,53,53,54,54,54,54,54,54,55,55,55,55,56,56,56,56,57,57,58,58,59,59,60];
unsucc = [3,4,6,7,8,9,10,11,12,13,14,15,16,17,18,19,20,21,22,23,24,25,28,29,31,33,34,38,40,41,44,46,50,51,4,5,8,11,13,16,17,18,21,23,38,5,6,7,9,10,12,14,15,19,20,22,27,31,6,7,8,9,10,11,12,13,14,15,16,17,18,19,20,21,22,23,24,25,28,29,31,32,33,34,38,40,41,44,46,47,50,51,53,57,7,8,9,10,11,12,13,15,16,17,18,19,21,22,23,24,25,29,31,32,33,34,38,40,41,44,46,47,50,51,52,53,54,57,8,11,13,14,16,17,18,19,20,21,23,26,27,30,36,38,9,10,12,13,14,15,17,19,20,22,24,25,26,27,31,38,11,12,13,14,16,17,18,19,20,21,22,23,26,27,30,31,33,35,36,38,39,45,11,12,13,14,16,17,18,19,20,21,22,23,26,27,28,30,31,33,35,36,38,39,40,45,47,12,13,14,15,16,17,18,19,20,22,23,24,25,26,27,30,31,34,36,38,43,45,46,13,14,15,16,17,18,19,20,21,23,24,25,26,27,28,30,31,33,34,35,36,38,40,43,46,47,14,15,16,18,19,20,21,22,23,27,28,31,33,38,39,41,15,16,17,18,19,20,21,22,23,24,25,28,29,31,32,33,34,38,40,41,44,46,47,50,51,52,53,54,57,59,16,17,18,19,20,21,22,23,24,25,26,27,28,29,30,31,32,33,34,35,36,37,38,39,40,41,42,43,44,45,47,48,50,51,52,53,55,56,57,58,17,18,19,20,21,22,24,25,26,27,28,29,31,33,38,39,40,41,44,47,50,18,19,20,21,22,23,27,28,31,33,38,39,40,41,44,46,47,19,20,21,22,24,25,26,27,28,29,31,33,34,38,39,40,41,44,47,50,51,52,21,22,23,24,25,26,27,29,30,31,32,33,34,35,36,37,38,39,40,41,42,43,44,45,46,47,48,49,50,51,52,53,54,57,59,61,21,22,23,24,25,26,27,29,30,31,32,33,34,35,36,37,38,39,40,41,42,43,44,45,46,47,48,49,50,51,52,53,54,57,59,61,22,23,24,25,26,27,28,29,30,31,32,34,36,38,43,45,46,23,24,25,26,27,28,29,30,31,32,33,34,35,36,37,38,40,41,42,43,44,46,47,50,51,52,53,54,56,24,25,26,27,28,29,30,31,33,34,35,38,39,40,41,42,44,47,50,51,52,54,26,27,28,30,31,33,35,36,38,39,40,41,44,45,46,47,26,27,28,30,31,33,35,36,38,39,40,41,43,44,45,46,47,50,27,28,29,31,32,33,34,36,38,39,40,41,44,46,47,50,51,52,53,54,57,59,28,29,30,31,32,33,34,35,38,40,41,42,44,46,47,50,51,52,53,54,56,57,59,29,30,31,32,33,34,35,36,37,38,39,40,41,42,43,44,45,46,47,48,49,50,51,52,53,54,55,57,58,59,61,30,31,33,34,35,36,38,39,40,41,43,44,45,46,47,50,31,32,33,34,36,38,39,40,41,44,46,47,50,51,52,53,54,57,59,32,36,38,39,43,45,46,33,34,35,36,38,39,40,41,42,43,44,45,46,47,48,49,50,51,52,54,55,34,35,36,37,38,39,43,45,46,35,36,37,38,39,40,41,42,43,44,45,46,47,48,49,50,56,36,38,39,40,41,43,44,45,46,47,50,51,52,53,54,55,57,59,37,38,39,40,41,42,44,46,47,50,51,52,53,54,56,57,59,38,39,40,41,42,43,44,45,46,47,48,49,50,51,52,53,54,55,56,57,59,61,39,40,41,42,43,44,45,46,48,51,55,56,58,60,40,41,42,43,44,45,46,47,50,51,52,53,54,55,56,57,59,41,43,45,46,51,55,42,43,45,46,47,48,49,56,43,44,45,46,47,50,51,52,53,54,55,57,59,44,45,46,47,48,49,50,51,52,53,54,55,56,57,58,59,60,45,46,47,48,49,51,55,56,58,60,46,47,48,49,50,51,52,53,54,56,57,59,61,47,48,50,51,52,53,54,55,56,57,58,59,60,48,49,50,51,52,53,54,55,56,58,60,50,51,52,53,54,55,56,57,59,50,51,52,53,54,55,56,57,58,59,60,51,55,56,58,60,56,53,55,56,57,58,60,61,54,55,56,58,60,55,56,57,58,60,61,56,57,59,61,57,58,59,61,58,60,59,61,60,61,61];

USEFUL_RES = [{},
	{1,3,5,6,7,10,11,12,14,15,16,17,20,21,23},
	{1,2,3,5,6,7,8,10,11,12,14,15,16,17,20,21,23},
	{1,3,5,7,9,10,12,15,19,20,21,22},
	{2,4,5,6,8,11,13,14,16,17,18,21,23},
	{2,3,4,6,8,11,12,14,15,16,17,21,23},
	{1,2,4,5,6,7,8,10,11,13,14,16,17,18,20,21,23},
	{1,3,5,7,9,10,12,13,15,18,19,20,21,22},
	{1,3,5,6,7,9,10,11,12,14,15,16,17,19,20,21,22,23},
	{2,6,8,11,14,16,17,21,23},
	{1,5,7,10,20,21},
	{1,2,4,5,6,7,8,9,10,11,14,16,17,19,20,21,22,23},
	{1,2,4,5,6,7,8,10,11,13,14,16,17,18,20,21,23},
	{1,2,4,5,6,7,8,9,10,11,13,14,16,17,18,19,20,21,22,23},
	{1,2,5,6,7,8,10,11,13,14,16,17,18,20,21,23},
	{1,5,7,10,20,21},
	{2,4,5,6,8,11,13,14,16,17,18,21,23},
	{1,2,4,5,6,7,8,9,10,11,13,14,16,17,18,19,20,21,22,23},
	{1,2,4,5,6,7,8,10,11,14,15,16,17,20,21,23},
	{1,2,5,6,7,8,10,11,14,16,17,20,21,23},
	{1,2,3,5,6,7,8,9,10,11,12,13,14,15,16,17,18,19,20,21,22,23},
	{1,2,3,5,6,7,8,9,10,11,14,15,16,17,19,20,21,22,23},
	{1,5,7,9,10,19,20,21,22},
	{2,6,8,11,14,16,17,21,23},
	{1,2,5,6,7,8,10,11,14,16,17,20,21,23},
	{1,2,3,4,5,6,7,8,9,10,11,14,15,16,17,19,20,21,22,23},
	{1,2,3,4,5,6,7,8,9,10,11,12,14,15,16,17,19,20,21,22,23},
	{2,3,5,6,7,8,11,12,13,14,15,16,17,18,20,21,23},
	{2,4,5,6,7,8,11,13,14,16,17,18,20,21,23},
	{1,3,5,7,9,10,12,15,19,20,21,22},
	{1,2,3,4,5,6,7,8,9,10,11,12,13,14,15,16,17,18,19,20,21,22,23},
	{1,2,4,5,6,7,8,9,10,11,13,14,16,17,18,19,20,21,22,23},
	{1,2,5,6,7,8,9,10,11,14,16,17,19,20,21,22,23},
	{3,6,11,14,15,16,17,21,23},
	{1,2,3,4,5,6,7,8,9,10,11,12,13,14,15,16,17,18,19,20,21,22,23},
	{2,6,8,11,14,16,17,21,23},
	{2,4,6,8,11,14,16,17,21,23},
	{1,2,3,4,5,6,7,8,9,10,11,14,15,16,17,19,20,21,22,23},
	{1,5,6,7,10,11,14,16,17,20,21,23},
	{1,2,4,5,6,7,8,9,10,11,13,14,16,17,18,19,20,21,22,23},
	{1,2,3,4,5,6,7,8,9,10,11,14,15,16,17,19,20,21,22,23},
	{1,2,3,4,5,6,7,8,9,10,11,12,13,14,15,16,17,18,19,20,21,22,23},
	{1,5,7,9,10,19,20,21,22},
	{1,2,3,4,5,6,7,8,9,10,11,13,14,15,16,17,18,19,20,21,22,23},
	{1,2,3,4,5,6,7,8,9,10,11,12,13,14,15,16,17,18,19,20,21,22,23},
	{1,2,4,5,6,7,8,9,10,11,14,16,17,19,20,21,22,23},
	{1,2,3,5,6,7,8,10,11,14,15,16,17,20,21,23},
	{1,5,7,10,20,21},
	{2,4,6,8,11,14,16,17,21,23},
	{3,5,6,11,12,13,14,15,16,17,18,21,23},
	{1,2,4,5,6,7,8,9,10,11,13,14,16,17,18,19,20,21,22,23},
	{1,2,5,6,7,8,9,10,11,14,16,17,19,20,21,22,23},
	{1,2,3,5,6,7,8,9,10,11,12,13,14,15,16,17,18,19,20,21,22,23},
	{5,11,13,18},
	{2,5,6,8,11,13,14,16,17,18,21,23},
	{1,2,3,4,5,6,7,8,9,10,11,14,15,16,17,19,20,21,22,23},
	{1,2,4,5,6,7,8,9,10,11,14,16,17,19,20,21,22,23},
	{1,2,5,6,7,8,9,10,11,13,14,16,17,18,19,20,21,22,23},
	{1,2,5,6,7,8,9,10,11,14,16,17,19,20,21,22,23},
	{1,2,4,5,6,7,8,9,10,11,13,14,16,17,18,19,20,21,22,23},
	{1,5,7,9,10,19,20,21,22},
	{}];

POTENTIAL_ACT = [{2,3,4,7,8,9,11,12,13,14,15,16,18,19,20,21,22,23,25,26,27,30,31,32,33,35,38,39,40,41,42,43,44,45,46,47,48,51,52,53,56,57,58,59,60,61},
	{3,5,6,7,10,12,13,14,15,17,18,19,20,21,22,24,25,26,27,28,29,31,32,33,35,36,37,38,40,41,42,44,45,46,47,49,51,52,53,55,56,57,58,59,60},
	{2,3,4,6,8,9,21,22,26,27,28,30,31,34,35,38,41,42,44,45,47,50,53,56},
	{5,6,7,12,13,14,17,18,19,26,27,29,31,32,35,37,38,40,41,42,44,45,46,49,51,56,57,60},
	{2,3,4,5,7,8,9,11,12,13,14,15,16,17,18,19,20,21,22,23,25,26,27,28,29,30,31,32,33,35,38,39,40,41,42,43,44,45,46,47,48,50,51,52,53,54,55,56,57,58,59,60,61},
	{2,3,5,6,7,9,10,12,13,14,15,17,18,19,20,21,22,24,25,26,27,28,29,31,32,33,34,35,36,37,38,39,40,41,42,44,45,46,47,49,50,51,52,53,55,56,57,58,59,60},
	{2,3,4,7,8,9,11,12,13,14,15,16,18,19,20,21,22,23,25,26,27,28,29,30,31,32,33,35,38,39,40,41,42,43,44,45,46,47,48,51,52,53,56,57,58,59,60,61},
	{3,5,6,7,10,12,13,14,15,17,18,19,20,21,22,24,25,26,27,28,29,31,32,33,35,36,37,38,40,41,42,44,45,46,47,49,51,52,53,55,56,57,58,59,60},
	{4,8,9,12,14,18,21,22,23,26,27,30,31,32,33,35,38,40,41,42,43,44,45,46,51,52,53,56,57,58,59,60,61},
	{2,3,4,7,8,9,11,12,13,14,15,16,18,19,20,21,22,23,25,26,27,30,31,32,33,35,38,39,40,41,42,43,44,45,46,47,48,51,52,53,56,57,58,59,60,61},
	{2,3,5,6,7,9,10,12,13,14,15,17,18,19,20,21,22,24,25,26,27,28,29,31,32,33,34,35,36,37,38,39,40,41,42,44,45,46,47,49,50,51,52,53,54,55,56,57,58,59,60},
	{2,3,4,6,8,9,21,27,28,30,31,35,42,45,50,53},
	{5,7,8,13,14,15,17,18,21,28,29,31,32,35,40,42,44,45,50,51,53,54,55,58,60},
	{2,3,5,6,7,9,10,12,13,14,15,17,18,19,20,21,22,24,25,26,27,28,29,31,32,33,34,35,36,37,38,39,40,41,42,44,45,46,47,49,50,51,52,53,55,56,57,58,59,60},
	{2,3,4,6,8,9,19,21,22,26,27,28,30,31,34,35,38,41,42,44,45,47,50,53,56},
	{2,3,5,6,7,9,10,12,13,14,15,17,18,19,20,21,22,24,25,26,27,28,29,31,32,33,34,35,36,37,38,39,40,41,42,44,45,46,47,49,50,51,52,53,55,56,57,58,59,60},
	{2,3,5,6,7,9,10,12,13,14,15,17,18,19,20,21,22,24,25,26,27,28,29,31,32,33,34,35,36,37,38,39,40,41,42,44,45,46,47,49,50,51,52,53,55,56,57,58,59,60},
	{5,7,8,13,14,15,17,18,21,28,29,31,32,35,40,42,44,45,50,51,53,54,55,58,60},
	{4,8,9,12,14,18,21,22,23,26,27,30,31,32,33,35,38,40,41,42,43,44,45,46,51,52,53,56,57,58,59,60,61},
	{2,3,4,7,8,9,11,12,13,14,15,16,18,19,20,21,22,23,25,26,27,28,29,30,31,32,33,35,38,39,40,41,42,43,44,45,46,47,48,51,52,53,56,57,58,59,60,61},
	{2,3,4,5,6,7,8,9,10,11,12,13,14,15,16,17,18,19,20,21,22,23,24,25,26,27,28,29,30,31,32,33,34,35,36,37,38,39,40,41,42,43,44,45,46,47,48,49,50,51,52,53,55,56,57,58,59,60,61},
	{4,8,9,12,14,18,21,22,23,26,27,30,31,32,33,35,38,40,41,42,43,44,45,46,51,52,53,56,57,58,59,60,61},
	{2,3,5,6,7,9,10,12,13,14,15,17,18,19,20,21,22,24,25,26,27,28,29,31,32,33,34,35,36,37,38,39,40,41,42,44,45,46,47,49,50,51,52,53,55,56,57,58,59,60}];
